DIMACS2
40 275 261 62 77 236 154 309 177 273 190 213 152 124 179 101 109 89 27 294 262 224 45 76 173 32 178 75 53 312 306 232 46 5 94 28 188 3 304 256 284
p edge 320 540
e 0 86 1.0
e 1 288 1.0
e 2 109 2.0
e 2 0 1.0
e 3 192 13.0
e 3 2 45.0
e 3 168 34.0
e 3 4 21.0
e 3 124 21.0
e 3 253 24.0
e 3 240 45.0
e 3 266 17.0
e 4 208 1.0
e 5 115 20.0
e 5 39 7.0
e 5 293 44.0
e 5 260 39.0
e 5 227 49.0
e 5 312 41.0
e 5 209 1.0
e 5 116 25.0
e 6 31 2.0
e 7 25 3.0
e 8 92 1.0
e 9 157 1.0
e 10 19 1.0
e 11 134 2.0
e 12 43 1.0
e 13 15 1.0
e 14 299 1.0
e 15 206 1.0
e 16 240 2.0
e 17 201 2.0
e 18 31 2.0
e 19 42 2.0
e 20 279 2.0
e 21 102 3.0
e 22 311 1.0
e 23 150 1.0
e 24 84 1.0
e 25 140 2.0
e 26 151 1.0
e 27 308 42.0
e 27 224 46.0
e 27 9 21.0
e 27 296 2.0
e 27 81 13.0
e 27 170 30.0
e 27 45 19.0
e 27 232 8.0
e 27 182 7.0
e 28 76 2.0
e 28 60 1.0
e 28 251 22.0
e 28 68 21.0
e 28 10 1.0
e 28 124 6.0
e 28 3 13.0
e 28 297 18.0
e 29 94 31.0
e 30 6 2.0
e 31 191 2.0
e 32 97 19.0
e 32 254 1.0
e 32 224 42.0
e 32 82 14.0
e 32 11 15.0
e 32 54 28.0
e 32 284 47.0
e 32 173 20.0
e 33 192 2.0
e 34 122 1.0
e 35 188 22.0
e 35 110 9.0
e 36 89 41.0
e 37 56 1.0
e 38 126 1.0
e 39 18 1.0
e 40 147 1.0
e 41 160 1.0
e 42 199 2.0
e 43 38 1.0
e 44 174 1.0
e 45 6 35.0
e 45 46 4.0
e 45 302 34.0
e 45 280 48.0
e 45 88 38.0
e 45 76 44.0
e 45 266 29.0
e 46 162 4.0
e 46 94 6.0
e 46 32 48.0
e 46 312 7.0
e 46 61 2.0
e 46 13 20.0
e 46 210 1.0
e 46 213 25.0
e 47 250 5.0
e 48 159 1.0
e 49 313 1.0
e 50 115 2.0
e 51 2 1.0
e 52 66 1.0
e 53 184 25.0
e 53 101 34.0
e 53 114 27.0
e 53 33 8.0
e 53 62 15.0
e 53 244 20.0
e 53 45 38.0
e 53 277 32.0
e 53 103 19.0
e 54 311 1.0
e 55 91 1.0
e 56 214 1.0
e 57 212 1.0
e 58 173 35.0
e 59 286 1.0
e 60 180 1.0
e 61 1 1.0
e 62 138 39.0
e 62 261 20.0
e 62 88 4.0
e 62 85 12.0
e 62 71 35.0
e 62 94 45.0
e 62 262 34.0
e 62 55 6.0
e 63 119 1.0
e 64 57 1.0
e 65 230 1.0
e 66 220 1.0
e 67 20 1.0
e 68 19 2.0
e 69 239 1.0
e 70 142 1.0
e 71 223 1.0
e 72 125 1.0
e 73 70 1.0
e 74 98 1.0
e 75 277 17.0
e 75 62 22.0
e 75 290 21.0
e 75 255 14.0
e 75 172 16.0
e 75 24 24.0
e 75 256 27.0
e 75 152 23.0
e 75 241 42.0
e 76 117 20.0
e 76 194 45.0
e 76 236 29.0
e 76 120 40.0
e 76 118 13.0
e 76 64 36.0
e 77 256 33.0
e 77 72 41.0
e 77 76 14.0
e 77 139 7.0
e 77 309 5.0
e 78 171 1.0
e 79 134 1.0
e 80 43 2.0
e 81 90 1.0
e 82 137 1.0
e 83 286 2.0
e 84 66 1.0
e 85 246 1.0
e 86 65 1.0
e 87 184 3.0
e 88 128 2.0
e 89 310 38.0
e 89 46 10.0
e 89 164 33.0
e 89 74 31.0
e 89 127 25.0
e 89 75 30.0
e 89 256 17.0
e 89 77 17.0
e 90 5 36.0
e 91 237 2.0
e 92 93 1.0
e 93 36 4.0
e 94 45 39.0
e 94 79 39.0
e 94 146 12.0
e 94 148 6.0
e 94 152 48.0
e 95 94 28.0
e 96 76 28.0
e 97 191 1.0
e 98 83 1.0
e 99 205 1.0
e 100 63 1.0
e 101 291 39.0
e 101 105 2.0
e 101 48 18.0
e 101 94 29.0
e 101 202 7.0
e 101 104 30.0
e 101 190 37.0
e 102 169 2.0
e 103 245 1.0
e 104 287 1.0
e 105 179 19.0
e 105 224 28.0
e 106 248 1.0
e 107 158 1.0
e 108 124 23.0
e 109 97 36.0
e 109 108 24.0
e 109 173 48.0
e 109 193 28.0
e 109 318 14.0
e 109 161 48.0
e 109 316 40.0
e 110 69 1.0
e 110 213 7.0
e 111 199 1.0
e 112 58 1.0
e 113 7 1.0
e 114 21 1.0
e 115 95 2.0
e 116 43 1.0
e 117 257 2.0
e 118 274 1.0
e 119 44 2.0
e 120 125 1.0
e 121 66 1.0
e 122 221 2.0
e 123 22 1.0
e 124 268 40.0
e 124 109 49.0
e 124 89 19.0
e 124 312 7.0
e 124 50 24.0
e 125 63 1.0
e 126 20 1.0
e 127 77 12.0
e 128 249 1.0
e 129 6 1.0
e 130 43 1.0
e 131 87 1.0
e 132 252 2.0
e 133 131 1.0
e 134 166 1.0
e 135 226 1.0
e 136 174 1.0
e 137 257 1.0
e 138 111 1.0
e 139 282 1.0
e 140 162 1.0
e 141 287 1.0
e 142 295 1.0
e 143 98 2.0
e 144 73 1.0
e 145 305 2.0
e 146 9 1.0
e 147 256 1.0
e 148 59 1.0
e 149 99 3.0
e 150 80 1.0
e 151 204 1.0
e 152 17 24.0
e 152 143 45.0
e 152 5 39.0
e 152 96 18.0
e 152 26 35.0
e 152 51 34.0
e 152 173 6.0
e 153 211 2.0
e 154 180 49.0
e 154 124 31.0
e 154 173 42.0
e 154 165 36.0
e 154 27 40.0
e 154 133 27.0
e 154 265 23.0
e 154 101 4.0
e 154 228 4.0
e 155 12 1.0
e 156 191 1.0
e 157 188 38.0
e 158 66 2.0
e 159 226 1.0
e 160 258 1.0
e 161 256 14.0
e 162 211 2.0
e 163 132 1.0
e 164 122 1.0
e 165 28 32.0
e 166 7 1.0
e 167 163 2.0
e 168 162 3.0
e 169 124 33.0
e 170 163 2.0
e 171 98 1.0
e 172 77 3.0
e 173 3 25.0
e 173 105 45.0
e 173 175 44.0
e 174 8 1.0
e 175 233 1.0
e 176 249 1.0
e 177 95 19.0
e 177 269 16.0
e 177 213 6.0
e 177 266 34.0
e 177 107 22.0
e 177 256 31.0
e 177 217 1.0
e 177 300 21.0
e 177 28 5.0
e 178 264 13.0
e 178 278 16.0
e 178 152 20.0
e 178 213 37.0
e 178 256 24.0
e 178 110 5.0
e 178 185 41.0
e 178 261 26.0
e 178 154 22.0
e 179 149 28.0
e 179 213 5.0
e 179 301 6.0
e 179 261 24.0
e 179 113 5.0
e 179 53 43.0
e 179 173 36.0
e 179 129 16.0
e 180 112 5.0
e 181 295 1.0
e 182 100 1.0
e 183 122 1.0
e 184 282 1.0
e 185 47 1.0
e 186 125 1.0
e 187 176 1.0
e 188 7 3.0
e 188 317 36.0
e 188 130 47.0
e 188 236 23.0
e 188 155 25.0
e 188 177 33.0
e 188 179 8.0
e 189 100 1.0
e 190 307 46.0
e 190 178 36.0
e 190 183 23.0
e 190 186 40.0
e 190 225 6.0
e 190 272 40.0
e 190 292 44.0
e 192 201 3.0
e 193 106 1.0
e 194 32 29.0
e 195 243 2.0
e 196 158 1.0
e 197 189 1.0
e 198 284 13.0
e 199 78 1.0
e 200 149 2.0
e 201 131 1.0
e 202 77 24.0
e 203 286 1.0
e 204 248 1.0
e 205 281 1.0
e 206 204 1.0
e 207 151 1.0
e 208 159 1.0
e 209 238 1.0
e 210 286 2.0
e 211 237 1.0
e 212 282 1.0
e 213 69 9.0
e 213 187 42.0
e 213 188 39.0
e 213 29 40.0
e 214 236 24.0
e 215 222 1.0
e 216 204 1.0
e 217 141 1.0
e 218 203 2.0
e 219 35 2.0
e 220 298 1.0
e 221 289 5.0
e 222 8 1.0
e 223 14 2.0
e 224 126 39.0
e 224 190 39.0
e 224 30 26.0
e 224 231 7.0
e 224 262 46.0
e 225 294 47.0
e 226 276 1.0
e 227 256 20.0
e 228 190 25.0
e 229 230 1.0
e 230 314 1.0
e 231 126 1.0
e 232 44 9.0
e 232 309 49.0
e 232 319 18.0
e 232 195 13.0
e 232 229 29.0
e 232 294 33.0
e 232 196 12.0
e 233 235 1.0
e 234 233 1.0
e 235 315 1.0
e 236 247 8.0
e 236 197 34.0
e 236 198 21.0
e 236 294 44.0
e 237 70 1.0
e 238 7 1.0
e 239 235 1.0
e 240 109 5.0
e 241 282 1.0
e 242 153 2.0
e 243 20 1.0
e 244 128 1.0
e 245 298 1.0
e 246 315 2.0
e 247 132 1.0
e 248 40 1.0
e 249 52 1.0
e 250 239 2.0
e 251 144 2.0
e 252 41 1.0
e 253 95 1.0
e 254 238 1.0
e 255 262 6.0
e 256 135 37.0
e 257 224 20.0
e 258 49 1.0
e 259 298 1.0
e 260 2 1.0
e 261 218 24.0
e 261 256 25.0
e 261 213 19.0
e 261 303 44.0
e 261 215 42.0
e 261 34 32.0
e 262 102 41.0
e 262 216 37.0
e 262 219 39.0
e 262 36 2.0
e 262 35 6.0
e 262 225 41.0
e 263 181 1.0
e 264 58 1.0
e 265 58 1.0
e 266 200 10.0
e 267 167 2.0
e 268 20 1.0
e 269 250 4.0
e 270 271 1.0
e 271 123 1.0
e 272 239 1.0
e 273 254 11.0
e 273 224 33.0
e 273 232 2.0
e 273 234 49.0
e 273 236 22.0
e 273 261 42.0
e 273 283 18.0
e 273 242 20.0
e 273 262 8.0
e 274 201 3.0
e 275 214 12.0
e 275 263 8.0
e 275 267 22.0
e 275 270 30.0
e 275 273 9.0
e 275 277 45.0
e 275 284 49.0
e 275 294 48.0
e 275 304 8.0
e 276 286 1.0
e 277 121 1.0
e 278 173 42.0
e 279 289 4.0
e 280 298 1.0
e 281 15 1.0
e 282 264 3.0
e 283 58 2.0
e 284 153 31.0
e 284 294 4.0
e 284 304 39.0
e 284 306 25.0
e 284 309 22.0
e 284 312 6.0
e 285 191 1.0
e 286 136 1.0
e 287 281 1.0
e 288 67 1.0
e 289 236 48.0
e 290 156 1.0
e 291 23 1.0
e 292 83 1.0
e 293 207 2.0
e 294 135 28.0
e 294 304 21.0
e 294 306 43.0
e 294 309 21.0
e 295 117 1.0
e 296 136 1.0
e 297 299 1.0
e 298 119 1.0
e 299 221 1.0
e 300 37 1.0
e 301 259 1.0
e 302 145 1.0
e 303 98 1.0
e 304 232 46.0
e 304 306 15.0
e 304 309 20.0
e 304 312 28.0
e 305 15 1.0
e 306 201 5.0
e 306 275 41.0
e 306 309 28.0
e 306 312 2.0
e 307 128 1.0
e 308 236 40.0
e 309 299 8.0
e 309 312 30.0
e 310 101 7.0
e 311 287 2.0
e 312 222 27.0
e 312 294 5.0
e 313 205 1.0
e 314 14 2.0
e 315 285 1.0
e 316 214 1.0
e 317 77 36.0
e 318 16 1.0
e 319 238 1.0
